<number of tasks>
250

<cycle time>
1000

<order strength>
0.596


<task times>
1 161
2 90
3 241
4 23
5 205
6 224
7 281
8 151
9 34
10 25
11 240
12 117
13 313
14 161
15 138
16 75
17 26
18 36
19 290
20 75
21 102
22 333
23 234
24 210
25 265
26 212
27 59
28 99
29 248
30 152
31 247
32 275
33 136
34 214
35 121
36 260
37 108
38 142
39 171
40 145
41 152
42 321
43 135
44 136
45 240
46 198
47 123
48 78
49 169
50 26
51 53
52 315
53 222
54 168
55 124
56 106
57 113
58 91
59 158
60 159
61 314
62 88
63 116
64 122
65 277
66 132
67 292
68 167
69 98
70 25
71 88
72 261
73 39
74 37
75 88
76 96
77 167
78 50
79 37
80 113
81 53
82 341
83 279
84 188
85 97
86 131
87 254
88 153
89 108
90 40
91 157
92 178
93 55
94 88
95 65
96 167
97 36
98 91
99 206
100 100
101 74
102 238
103 84
104 203
105 127
106 80
107 65
108 207
109 112
110 205
111 169
112 30
113 61
114 85
115 180
116 33
117 180
118 168
119 39
120 118
121 163
122 119
123 78
124 71
125 227
126 100
127 180
128 91
129 303
130 69
131 20
132 235
133 152
134 256
135 192
136 36
137 162
138 217
139 173
140 188
141 103
142 100
143 204
144 256
145 110
146 197
147 340
148 257
149 116
150 184
151 43
152 36
153 184
154 82
155 97
156 137
157 143
158 218
159 196
160 63
161 22
162 175
163 219
164 71
165 215
166 176
167 22
168 143
169 51
170 110
171 64
172 88
173 131
174 82
175 180
176 166
177 104
178 49
179 141
180 107
181 156
182 127
183 42
184 41
185 23
186 72
187 63
188 303
189 58
190 114
191 218
192 170
193 36
194 136
195 68
196 325
197 217
198 79
199 363
200 29
201 64
202 192
203 254
204 166
205 52
206 172
207 277
208 37
209 70
210 149
211 114
212 29
213 94
214 208
215 59
216 192
217 30
218 94
219 142
220 313
221 190
222 147
223 94
224 238
225 283
226 23
227 172
228 296
229 196
230 37
231 96
232 203
233 142
234 83
235 100
236 226
237 140
238 238
239 169
240 114
241 149
242 42
243 203
244 198
245 39
246 39
247 327
248 281
249 145
250 151

<precedence relations>
1,42
2,24
3,226
4,205
5,52
6,52
7,187
8,187
9,125
10,12
10,14
10,16
10,17
10,22
11,12
11,13
11,15
11,18
11,19
11,20
11,21
12,42
13,24
14,24
15,24
16,24
17,24
18,24
19,52
20,52
21,182
22,23
22,25
22,26
22,27
22,28
22,29
22,30
22,31
22,32
23,42
24,33
24,35
24,36
24,37
24,38
24,39
25,84
26,84
27,161
28,203
29,41
30,34
30,40
30,54
31,33
31,34
31,69
31,70
32,33
32,34
32,41
32,54
32,70
33,42
34,42
35,42
36,46
37,43
37,46
37,62
38,45
38,127
38,180
39,44
39,107
40,226
41,84
42,47
42,48
42,49
42,50
42,51
42,64
42,71
43,52
44,125
45,119
45,158
46,53
46,54
46,69
47,72
47,87
47,92
48,62
48,66
48,77
48,98
48,99
49,62
49,63
49,73
50,92
50,143
50,161
51,102
51,119
52,55
52,56
52,57
52,58
52,59
52,60
52,61
53,84
54,63
55,64
55,70
55,79
55,81
56,64
56,65
56,66
56,83
57,64
57,65
57,67
57,77
58,66
58,117
58,160
59,64
59,85
59,106
59,109
60,64
60,65
60,69
60,70
61,230
62,182
63,67
63,68
64,182
65,125
66,203
67,75
68,72
68,74
69,71
69,73
70,75
70,78
71,129
72,84
73,84
74,77
74,78
74,79
74,81
75,76
75,80
75,82
76,129
77,187
78,125
79,84
80,84
81,161
82,83
82,85
82,86
82,153
83,129
84,88
84,89
84,90
84,91
84,93
85,87
85,92
85,213
86,109
86,144
87,205
88,203
89,94
90,95
90,164
91,97
91,98
91,99
92,96
92,164
93,96
93,107
93,116
94,129
95,187
96,182
97,125
98,125
99,100
99,101
99,102
99,103
99,104
99,105
99,106
100,205
101,125
102,125
103,203
104,107
104,108
104,109
104,159
105,107
105,109
106,110
107,205
108,187
109,125
110,111
110,112
110,113
110,114
110,115
111,205
112,125
113,117
113,118
113,120
113,121
114,119
114,122
114,153
115,116
115,120
116,125
117,203
118,162
119,128
119,157
120,126
120,127
121,123
122,124
123,129
124,129
125,130
125,131
125,132
125,133
125,134
125,136
126,129
126,135
127,195
128,214
129,137
129,138
129,139
129,140
129,141
129,142
129,148
130,161
131,146
131,156
133,143
133,154
134,163
135,144
135,145
136,147
136,161
136,164
137,161
139,147
139,151
140,159
140,180
140,195
140,215
141,150
141,151
142,226
143,150
145,149
145,151
146,147
146,148
146,151
146,163
147,226
148,243
149,153
149,159
149,180
150,156
150,158
151,152
151,154
151,155
151,157
152,243
153,182
154,161
155,161
156,160
156,162
156,165
157,164
157,182
158,163
160,243
161,167
161,168
161,169
161,170
161,171
161,172
161,173
161,174
161,175
161,176
161,177
162,166
163,178
163,204
164,185
165,213
165,215
165,231
166,205
167,205
168,182
169,183
169,195
171,185
172,179
173,184
173,205
174,181
174,227
175,179
176,243
177,180
178,179
179,226
180,205
181,187
182,186
182,188
182,189
182,190
182,191
182,192
182,193
182,194
183,203
185,195
186,243
187,197
187,198
187,199
187,200
187,201
187,202
188,203
189,204
189,249
191,196
192,227
193,205
195,205
196,205
199,214
199,229
200,213
203,206
203,207
203,208
203,209
203,210
203,211
203,212
203,243
205,216
205,217
205,218
205,219
205,220
205,221
205,222
205,223
206,244
207,226
210,225
210,250
211,215
211,224
211,228
213,224
215,226
217,227
217,230
218,229
220,231
222,228
222,230
222,231
222,249
223,228
223,229
223,244
226,232
226,233
226,234
226,235
226,236
226,237
226,238
226,239
226,240
226,241
226,242
226,244
227,243
239,250
243,245
243,246
243,247
243,248
244,249

<end>
